# Solution for model obj
# Objective value = 142400
z 142400
x#1#7 0
x#1#6 0
x#1#5 0
x#1#4 0
x#1#3 1
x#1#2 1
x#2#1 0
x#2#7 1
x#2#6 1
x#2#5 0
x#2#4 0
x#2#3 0
x#3#1 0
x#3#7 1
x#3#6 0
x#3#5 1
x#3#4 0
x#3#2 0
x#4#1 0
x#4#7 0
x#4#6 1
x#4#5 0
x#4#3 1
x#4#2 0
x#5#1 0
x#5#7 0
x#5#6 0
x#5#4 1
x#5#3 0
x#5#2 1
x#6#1 1
x#6#7 0
x#6#5 1
x#6#4 0
x#6#3 0
x#6#2 0
x#7#1 1
x#7#6 0
x#7#5 0
x#7#4 1
x#7#3 0
x#7#2 0
f#1#2#7 43400
f#1#2#6 41000
f#1#2#5 0
f#1#2#4 0
f#1#2#3 0
f#1#7#2 0
f#1#6#2 0
f#1#5#2 0
f#1#4#2 0
f#1#3#2 0
f#1#1#2 108400
f#1#3#7 20400
f#1#3#6 0
f#1#3#5 41200
f#1#3#4 0
f#1#7#3 0
f#1#6#3 0
f#1#5#3 0
f#1#4#3 0
f#1#1#3 104600
f#1#4#7 0
f#1#4#6 0
f#1#4#5 0
f#1#7#4 2800
f#1#6#4 0
f#1#5#4 20200
f#1#1#4 0
f#1#5#7 0
f#1#5#6 0
f#1#7#5 0
f#1#6#5 0
f#1#1#5 0
f#1#6#7 0
f#1#7#6 0
f#1#1#6 0
f#1#1#7 0
f#2#3#7 0
f#2#3#6 0
f#2#3#5 0
f#2#3#4 0
f#2#3#1 0
f#2#7#3 0
f#2#6#3 0
f#2#5#3 0
f#2#4#3 0
f#2#2#3 0
f#2#1#3 0
f#2#4#7 0
f#2#4#6 0
f#2#4#5 0
f#2#4#1 0
f#2#7#4 0
f#2#6#4 0
f#2#5#4 0
f#2#2#4 0
f#2#1#4 0
f#2#5#7 0
f#2#5#6 0
f#2#5#1 0
f#2#7#5 0
f#2#6#5 21000
f#2#2#5 0
f#2#1#5 0
f#2#6#7 0
f#2#6#1 0
f#2#7#6 0
f#2#2#6 39000
f#2#1#6 0
f#2#7#1 0
f#2#2#7 39000
f#2#1#7 0
f#2#2#1 0
f#3#2#7 0
f#3#2#6 0
f#3#2#5 0
f#3#2#4 0
f#3#2#1 0
f#3#7#2 0
f#3#6#2 0
f#3#5#2 0
f#3#4#2 0
f#3#3#2 0
f#3#1#2 0
f#3#4#7 0
f#3#4#6 0
f#3#4#5 0
f#3#4#1 0
f#3#7#4 0
f#3#6#4 0
f#3#5#4 20000
f#3#3#4 0
f#3#1#4 0
f#3#5#7 0
f#3#5#6 0
f#3#5#1 0
f#3#7#5 0
f#3#6#5 0
f#3#3#5 64000
f#3#1#5 0
f#3#6#7 0
f#3#6#1 0
f#3#7#6 0
f#3#3#6 0
f#3#1#6 0
f#3#7#1 16000
f#3#3#7 58000
f#3#1#7 0
f#3#3#1 0
f#4#2#7 0
f#4#2#6 0
f#4#2#5 0
f#4#2#3 0
f#4#2#1 0
f#4#7#2 0
f#4#6#2 0
f#4#5#2 20000
f#4#4#2 0
f#4#3#2 0
f#4#1#2 0
f#4#3#7 43000
f#4#3#6 0
f#4#3#5 37200
f#4#3#1 0
f#4#7#3 0
f#4#6#3 0
f#4#5#3 0
f#4#4#3 98200
f#4#1#3 0
f#4#5#7 0
f#4#5#6 0
f#4#5#1 0
f#4#7#5 0
f#4#6#5 22800
f#4#4#5 0
f#4#1#5 0
f#4#6#7 0
f#4#6#1 42000
f#4#7#6 0
f#4#4#6 121800
f#4#1#6 0
f#4#7#1 0
f#4#4#7 0
f#4#1#7 0
f#4#4#1 0
f#5#2#7 60000
f#5#2#6 62400
f#5#2#4 0
f#5#2#3 0
f#5#2#1 0
f#5#7#2 0
f#5#6#2 0
f#5#5#2 122400
f#5#4#2 0
f#5#3#2 0
f#5#1#2 0
f#5#3#7 0
f#5#3#6 0
f#5#3#4 0
f#5#3#1 0
f#5#7#3 0
f#5#6#3 0
f#5#5#3 0
f#5#4#3 0
f#5#1#3 0
f#5#4#7 0
f#5#4#6 20600
f#5#4#1 0
f#5#7#4 0
f#5#6#4 0
f#5#5#4 60600
f#5#1#4 0
f#5#6#7 0
f#5#6#1 0
f#5#7#6 0
f#5#5#6 0
f#5#1#6 0
f#5#7#1 0
f#5#5#7 0
f#5#1#7 0
f#5#5#1 0
f#6#2#7 0
f#6#2#5 0
f#6#2#4 0
f#6#2#3 0
f#6#2#1 0
f#6#7#2 0
f#6#6#2 0
f#6#5#2 0
f#6#4#2 0
f#6#3#2 0
f#6#1#2 18000
f#6#3#7 21000
f#6#3#5 0
f#6#3#4 0
f#6#3#1 0
f#6#7#3 0
f#6#6#3 0
f#6#5#3 0
f#6#4#3 0
f#6#1#3 21000
f#6#4#7 0
f#6#4#5 0
f#6#4#1 0
f#6#7#4 0
f#6#6#4 0
f#6#5#4 37000
f#6#1#4 0
f#6#5#7 0
f#6#5#1 0
f#6#7#5 0
f#6#6#5 55000
f#6#1#5 0
f#6#7#1 0
f#6#6#7 0
f#6#1#7 0
f#6#6#1 99000
f#7#2#6 0
f#7#2#5 0
f#7#2#4 0
f#7#2#3 0
f#7#2#1 0
f#7#7#2 0
f#7#6#2 0
f#7#5#2 0
f#7#4#2 0
f#7#3#2 0
f#7#1#2 0
f#7#3#6 0
f#7#3#5 0
f#7#3#4 0
f#7#3#1 0
f#7#7#3 0
f#7#6#3 0
f#7#5#3 0
f#7#4#3 0
f#7#1#3 0
f#7#4#6 0
f#7#4#5 0
f#7#4#1 0
f#7#7#4 0
f#7#6#4 0
f#7#5#4 0
f#7#1#4 0
f#7#5#6 0
f#7#5#1 0
f#7#7#5 0
f#7#6#5 0
f#7#1#5 0
f#7#6#1 0
f#7#7#6 0
f#7#1#6 0
f#7#7#1 22000
